Problem:    lp
Rows:       5
Columns:    2
Non-zeros:  8
Status:     OPTIMAL
Objective:  z = 124.8 (MAXimum)

   No.   Row name   St   Activity     Lower bound   Upper bound    Marginal
------ ------------ -- ------------- ------------- ------------- -------------
     1 z            B          124.8                             
     2 st1          NU            30                          30           3.2 
     3 st2          NU            24                          24           1.2 
     4 st3          B            2.4            -0               
     5 st4          B            8.4            -0               

   No. Column name  St   Activity     Lower bound   Upper bound    Marginal
------ ------------ -- ------------- ------------- ------------- -------------
     1 x            B            2.4             0               
     2 y            B            8.4             0               

Karush-Kuhn-Tucker optimality conditions:

KKT.PE: max.abs.err = 3.55e-15 on row 2
        max.rel.err = 5.82e-17 on row 2
        High quality

KKT.PB: max.abs.err = 0.00e+00 on row 0
        max.rel.err = 0.00e+00 on row 0
        High quality

KKT.DE: max.abs.err = 1.78e-15 on column 2
        max.rel.err = 7.11e-17 on column 2
        High quality

KKT.DB: max.abs.err = 0.00e+00 on row 0
        max.rel.err = 0.00e+00 on row 0
        High quality

End of output
